(declare-fun b_2_path () Bool)
(declare-fun c_1_Global_M_correct () (Array Int (_ BitVec 8)))
(declare-fun c_2_Global_M_correct () (Array Int (_ BitVec 8)))
(declare-fun i_1_i.0.i () Int)
(declare-fun b_1_exit () Bool)
(declare-fun b_3_path () Bool)
(declare-fun c_3_Global_M_correct () (Array Int (_ BitVec 8)))
(declare-fun b_5_path () Bool)
(declare-fun c_4_Global_M_correct () (Array Int (_ BitVec 8)))
(declare-fun i_2_i.0.i2 () Int)
(declare-fun b_4_exit () Bool)
(declare-fun b_6_path () Bool)
(declare-fun c_5_Global_M_correct () (Array Int (_ BitVec 8)))
(declare-fun b_8_path () Bool)
(declare-fun c_6_Global_M_correct () (Array Int (_ BitVec 8)))
(declare-fun i_3_i.0.i9 () Int)
(declare-fun b_7_exit () Bool)
(declare-fun b_9_path () Bool)
(declare-fun c_7_Global_M_correct () (Array Int (_ BitVec 8)))
(declare-fun i_5_Vdec_correct () Int)
(declare-fun c_8_Global_M_correct () (Array Int (_ BitVec 8)))
(declare-fun b_10_path () Bool)
(declare-fun c_9_Global_M_correct () (Array Int (_ BitVec 8)))
(declare-fun i_7_Ox_correct () Int)
(declare-fun c_10_Global_M_correct () (Array Int (_ BitVec 8)))
(declare-fun b_11_path () Bool)
(declare-fun c_11_Global_M_correct () (Array Int (_ BitVec 8)))
(declare-fun i_9_s_correct () Int)
(declare-fun c_12_Global_M_correct () (Array Int (_ BitVec 8)))
(declare-fun b_12_path () Bool)
(declare-fun c_13_Global_M_correct () (Array Int (_ BitVec 8)))
(declare-fun c_14_Global_M_correct () (Array Int (_ BitVec 8)))
(declare-fun c_15_Global_M_correct () (Array Int (_ BitVec 8)))
(declare-fun c_16_Global_M_correct () (Array Int (_ BitVec 8)))
(declare-fun c_17_Global_M_correct () (Array Int (_ BitVec 8)))
(declare-fun c_18_Global_M_correct () (Array Int (_ BitVec 8)))
(declare-fun c_19_Global_M_correct () (Array Int (_ BitVec 8)))
(declare-fun c_20_Global_M_correct () (Array Int (_ BitVec 8)))
(declare-fun c_21_Global_M_correct () (Array Int (_ BitVec 8)))
(declare-fun c_22_Global_M_correct () (Array Int (_ BitVec 8)))
(declare-fun c_23_Global_M_correct () (Array Int (_ BitVec 8)))
(declare-fun c_24_Global_M_correct () (Array Int (_ BitVec 8)))
(declare-fun c_25_Global_M_correct () (Array Int (_ BitVec 8)))
(declare-fun c_26_Global_M_correct () (Array Int (_ BitVec 8)))
(declare-fun c_27_Global_M_correct () (Array Int (_ BitVec 8)))
(declare-fun c_28_Global_M_correct () (Array Int (_ BitVec 8)))
(declare-fun c_29_Global_M_correct () (Array Int (_ BitVec 8)))
(declare-fun c_30_Global_M_correct () (Array Int (_ BitVec 8)))
(declare-fun c_31_Global_M_correct () (Array Int (_ BitVec 8)))
(declare-fun c_32_Global_M_correct () (Array Int (_ BitVec 8)))
(declare-fun c_33_Global_M_correct () (Array Int (_ BitVec 8)))
(declare-fun c_34_Global_M_correct () (Array Int (_ BitVec 8)))
(declare-fun c_35_Global_M_correct () (Array Int (_ BitVec 8)))
(declare-fun c_36_Global_M_correct () (Array Int (_ BitVec 8)))
(declare-fun c_37_Global_M_correct () (Array Int (_ BitVec 8)))
(declare-fun c_38_Global_M_correct () (Array Int (_ BitVec 8)))
(declare-fun c_39_Global_M_correct () (Array Int (_ BitVec 8)))
(declare-fun c_40_Global_M_correct () (Array Int (_ BitVec 8)))
(declare-fun c_41_Global_M_correct () (Array Int (_ BitVec 8)))
(declare-fun c_42_Global_M_correct () (Array Int (_ BitVec 8)))
(declare-fun c_43_Global_M_correct () (Array Int (_ BitVec 8)))
(declare-fun c_44_Global_M_correct () (Array Int (_ BitVec 8)))
(declare-fun c_45_Global_M_correct () (Array Int (_ BitVec 8)))
(declare-fun c_46_Global_M_correct () (Array Int (_ BitVec 8)))
(declare-fun c_47_Global_M_correct () (Array Int (_ BitVec 8)))
(declare-fun c_48_Global_M_correct () (Array Int (_ BitVec 8)))
(declare-fun c_49_Global_M_correct () (Array Int (_ BitVec 8)))
(declare-fun c_50_Global_M_correct () (Array Int (_ BitVec 8)))
(declare-fun c_51_Global_M_correct () (Array Int (_ BitVec 8)))
(declare-fun c_52_Global_M_correct () (Array Int (_ BitVec 8)))
(declare-fun c_53_Global_M_correct () (Array Int (_ BitVec 8)))
(declare-fun c_54_Global_M_correct () (Array Int (_ BitVec 8)))
(declare-fun c_55_Global_M_correct () (Array Int (_ BitVec 8)))
(declare-fun c_56_Global_M_correct () (Array Int (_ BitVec 8)))
(declare-fun c_57_Global_M_correct () (Array Int (_ BitVec 8)))
(declare-fun c_58_Global_M_correct () (Array Int (_ BitVec 8)))
(declare-fun c_59_Global_M_correct () (Array Int (_ BitVec 8)))
(declare-fun c_60_Global_M_correct () (Array Int (_ BitVec 8)))
(declare-fun c_61_Global_M_correct () (Array Int (_ BitVec 8)))
(declare-fun c_62_Global_M_correct () (Array Int (_ BitVec 8)))
(declare-fun c_63_Global_M_correct () (Array Int (_ BitVec 8)))
(declare-fun c_64_Global_M_correct () (Array Int (_ BitVec 8)))
(declare-fun c_65_Global_M_correct () (Array Int (_ BitVec 8)))
(declare-fun c_66_Global_M_correct () (Array Int (_ BitVec 8)))
(declare-fun c_67_Global_M_correct () (Array Int (_ BitVec 8)))
(declare-fun c_68_Global_M_correct () (Array Int (_ BitVec 8)))
(declare-fun c_69_Global_M_correct () (Array Int (_ BitVec 8)))
(declare-fun c_70_Global_M_correct () (Array Int (_ BitVec 8)))
(declare-fun c_71_Global_M_correct () (Array Int (_ BitVec 8)))
(declare-fun c_72_Global_M_correct () (Array Int (_ BitVec 8)))
(declare-fun c_73_Global_M_correct () (Array Int (_ BitVec 8)))
(declare-fun c_74_Global_M_correct () (Array Int (_ BitVec 8)))
(declare-fun c_75_Global_M_correct () (Array Int (_ BitVec 8)))
(declare-fun c_76_Global_M_correct () (Array Int (_ BitVec 8)))
(declare-fun c_77_Global_M_correct () (Array Int (_ BitVec 8)))
(declare-fun c_78_Global_M_correct () (Array Int (_ BitVec 8)))
(declare-fun c_79_Global_M_correct () (Array Int (_ BitVec 8)))
(declare-fun c_80_Global_M_correct () (Array Int (_ BitVec 8)))
(declare-fun c_81_Global_M_correct () (Array Int (_ BitVec 8)))
(declare-fun c_82_Global_M_correct () (Array Int (_ BitVec 8)))
(declare-fun c_83_Global_M_correct () (Array Int (_ BitVec 8)))
(declare-fun c_84_Global_M_correct () (Array Int (_ BitVec 8)))
(declare-fun c_85_Global_M_correct () (Array Int (_ BitVec 8)))
(declare-fun c_86_Global_M_correct () (Array Int (_ BitVec 8)))
(declare-fun c_87_Global_M_correct () (Array Int (_ BitVec 8)))
(declare-fun c_88_Global_M_correct () (Array Int (_ BitVec 8)))
(declare-fun c_89_Global_M_correct () (Array Int (_ BitVec 8)))
(declare-fun c_90_Global_M_correct () (Array Int (_ BitVec 8)))
(declare-fun c_91_Global_M_correct () (Array Int (_ BitVec 8)))
(declare-fun i_10_ret_val_correct () Int)
(assert true)
(assert (=> b_2_path (or (and true true))))
(assert (and (=> (and true true) (= c_2_Global_M_correct c_1_Global_M_correct))))
(assert (and (=> (and true true) (= i_1_i.0.i 0))))
(assert (= (distinct i_1_i.0.i 780) b_1_exit))
(assert (=> b_3_path (or (and b_2_path (not b_1_exit)))))
(assert (and (=> (and b_2_path (not b_1_exit))
         (= c_3_Global_M_correct c_2_Global_M_correct))))
(assert (=> b_5_path (or (and b_3_path true))))
(assert (and (=> (and b_3_path true) (= c_4_Global_M_correct c_3_Global_M_correct))))
(assert (and (=> (and b_3_path true) (= i_2_i.0.i2 0))))
(assert (= (distinct i_2_i.0.i2 78) b_4_exit))
(assert (=> b_6_path (or (and b_5_path (not b_4_exit)))))
(assert (and (=> (and b_5_path (not b_4_exit))
         (= c_5_Global_M_correct c_4_Global_M_correct))))
(assert (=> b_8_path (or (and b_6_path true))))
(assert (and (=> (and b_6_path true) (= c_6_Global_M_correct c_5_Global_M_correct))))
(assert (and (=> (and b_6_path true) (= i_3_i.0.i9 0))))
(assert (= (distinct i_3_i.0.i9 860) b_7_exit))
(assert (=> b_9_path (or (and b_2_path b_1_exit))))
(assert (and (=> (and b_2_path b_1_exit) (= c_7_Global_M_correct c_2_Global_M_correct))))
(assert (= c_8_Global_M_correct (store c_7_Global_M_correct i_5_Vdec_correct #x00)))
(assert (=> b_10_path (or (and b_5_path b_4_exit))))
(assert (and (=> (and b_5_path b_4_exit) (= c_9_Global_M_correct c_4_Global_M_correct))))
(assert (= c_10_Global_M_correct (store c_9_Global_M_correct (+ 780 i_7_Ox_correct) #x00)))
(assert (=> b_11_path (or (and b_8_path b_7_exit))))
(assert (and (=> (and b_8_path b_7_exit) (= c_11_Global_M_correct c_6_Global_M_correct))))
(assert (= c_12_Global_M_correct (store c_11_Global_M_correct (+ 858 i_9_s_correct) #x00)))
(assert (=> b_12_path (or (and b_8_path (not b_7_exit)))))
(assert (and (=> (and b_8_path (not b_7_exit))
         (= c_13_Global_M_correct c_6_Global_M_correct))))
(assert (= c_14_Global_M_correct (store c_13_Global_M_correct (+ 858 i_9_s_correct) (bvxor (select c_13_Global_M_correct i_5_Vdec_correct) (select c_13_Global_M_correct (+ 780 i_7_Ox_correct))))))
(assert (= c_15_Global_M_correct (store c_14_Global_M_correct (+ 858 i_9_s_correct) (bvxor (select c_14_Global_M_correct i_5_Vdec_correct) (select c_14_Global_M_correct (+ 780 i_7_Ox_correct))))))
(assert (= c_16_Global_M_correct (store c_15_Global_M_correct (+ 858 i_9_s_correct) (bvxor (select c_15_Global_M_correct i_5_Vdec_correct) (select c_15_Global_M_correct (+ 780 i_7_Ox_correct))))))
(assert (= c_17_Global_M_correct (store c_16_Global_M_correct (+ 858 i_9_s_correct) (bvxor (select c_16_Global_M_correct i_5_Vdec_correct) (select c_16_Global_M_correct (+ 780 i_7_Ox_correct))))))
(assert (= c_18_Global_M_correct (store c_17_Global_M_correct (+ 858 i_9_s_correct) (bvxor (select c_17_Global_M_correct i_5_Vdec_correct) (select c_17_Global_M_correct (+ 780 i_7_Ox_correct))))))
(assert (= c_19_Global_M_correct (store c_18_Global_M_correct (+ 858 i_9_s_correct) (bvxor (select c_18_Global_M_correct i_5_Vdec_correct) (select c_18_Global_M_correct (+ 780 i_7_Ox_correct))))))
(assert (= c_20_Global_M_correct (store c_19_Global_M_correct (+ 858 i_9_s_correct) (bvxor (select c_19_Global_M_correct i_5_Vdec_correct) (select c_19_Global_M_correct (+ 780 i_7_Ox_correct))))))
(assert (= c_21_Global_M_correct (store c_20_Global_M_correct (+ 858 i_9_s_correct) (bvxor (select c_20_Global_M_correct i_5_Vdec_correct) (select c_20_Global_M_correct (+ 780 i_7_Ox_correct))))))
(assert (= c_22_Global_M_correct (store c_21_Global_M_correct (+ 858 i_9_s_correct) (bvxor (select c_21_Global_M_correct i_5_Vdec_correct) (select c_21_Global_M_correct (+ 780 i_7_Ox_correct))))))
(assert (= c_23_Global_M_correct (store c_22_Global_M_correct (+ 858 i_9_s_correct) (bvxor (select c_22_Global_M_correct i_5_Vdec_correct) (select c_22_Global_M_correct (+ 780 i_7_Ox_correct))))))
(assert (= c_24_Global_M_correct (store c_23_Global_M_correct (+ 858 i_9_s_correct) (bvxor (select c_23_Global_M_correct i_5_Vdec_correct) (select c_23_Global_M_correct (+ 780 i_7_Ox_correct))))))
(assert (= c_25_Global_M_correct (store c_24_Global_M_correct (+ 858 i_9_s_correct) (bvxor (select c_24_Global_M_correct i_5_Vdec_correct) (select c_24_Global_M_correct (+ 780 i_7_Ox_correct))))))
(assert (= c_26_Global_M_correct (store c_25_Global_M_correct (+ 858 i_9_s_correct) (bvxor (select c_25_Global_M_correct i_5_Vdec_correct) (select c_25_Global_M_correct (+ 780 i_7_Ox_correct))))))
(assert (= c_27_Global_M_correct (store c_26_Global_M_correct (+ 858 i_9_s_correct) (bvxor (select c_26_Global_M_correct i_5_Vdec_correct) (select c_26_Global_M_correct (+ 780 i_7_Ox_correct))))))
(assert (= c_28_Global_M_correct (store c_27_Global_M_correct (+ 858 i_9_s_correct) (bvxor (select c_27_Global_M_correct i_5_Vdec_correct) (select c_27_Global_M_correct (+ 780 i_7_Ox_correct))))))
(assert (= c_29_Global_M_correct (store c_28_Global_M_correct (+ 858 i_9_s_correct) (bvxor (select c_28_Global_M_correct i_5_Vdec_correct) (select c_28_Global_M_correct (+ 780 i_7_Ox_correct))))))
(assert (= c_30_Global_M_correct (store c_29_Global_M_correct (+ 858 i_9_s_correct) (bvxor (select c_29_Global_M_correct i_5_Vdec_correct) (select c_29_Global_M_correct (+ 780 i_7_Ox_correct))))))
(assert (= c_31_Global_M_correct (store c_30_Global_M_correct (+ 858 i_9_s_correct) (bvxor (select c_30_Global_M_correct i_5_Vdec_correct) (select c_30_Global_M_correct (+ 780 i_7_Ox_correct))))))
(assert (= c_32_Global_M_correct (store c_31_Global_M_correct (+ 858 i_9_s_correct) (bvxor (select c_31_Global_M_correct i_5_Vdec_correct) (select c_31_Global_M_correct (+ 780 i_7_Ox_correct))))))
(assert (= c_33_Global_M_correct (store c_32_Global_M_correct (+ 858 i_9_s_correct) (bvxor (select c_32_Global_M_correct i_5_Vdec_correct) (select c_32_Global_M_correct (+ 780 i_7_Ox_correct))))))
(assert (= c_34_Global_M_correct (store c_33_Global_M_correct (+ 858 i_9_s_correct) (bvxor (select c_33_Global_M_correct i_5_Vdec_correct) (select c_33_Global_M_correct (+ 780 i_7_Ox_correct))))))
(assert (= c_35_Global_M_correct (store c_34_Global_M_correct (+ 858 i_9_s_correct) (bvxor (select c_34_Global_M_correct i_5_Vdec_correct) (select c_34_Global_M_correct (+ 780 i_7_Ox_correct))))))
(assert (= c_36_Global_M_correct (store c_35_Global_M_correct (+ 858 i_9_s_correct) (bvxor (select c_35_Global_M_correct i_5_Vdec_correct) (select c_35_Global_M_correct (+ 780 i_7_Ox_correct))))))
(assert (= c_37_Global_M_correct (store c_36_Global_M_correct (+ 858 i_9_s_correct) (bvxor (select c_36_Global_M_correct i_5_Vdec_correct) (select c_36_Global_M_correct (+ 780 i_7_Ox_correct))))))
(assert (= c_38_Global_M_correct (store c_37_Global_M_correct (+ 858 i_9_s_correct) (bvxor (select c_37_Global_M_correct i_5_Vdec_correct) (select c_37_Global_M_correct (+ 780 i_7_Ox_correct))))))
(assert (= c_39_Global_M_correct (store c_38_Global_M_correct (+ 858 i_9_s_correct) (bvxor (select c_38_Global_M_correct i_5_Vdec_correct) (select c_38_Global_M_correct (+ 780 i_7_Ox_correct))))))
(assert (= c_40_Global_M_correct (store c_39_Global_M_correct (+ 858 i_9_s_correct) (bvxor (select c_39_Global_M_correct i_5_Vdec_correct) (select c_39_Global_M_correct (+ 780 i_7_Ox_correct))))))
(assert (= c_41_Global_M_correct (store c_40_Global_M_correct (+ 858 i_9_s_correct) (bvxor (select c_40_Global_M_correct i_5_Vdec_correct) (select c_40_Global_M_correct (+ 780 i_7_Ox_correct))))))
(assert (= c_42_Global_M_correct (store c_41_Global_M_correct (+ 858 i_9_s_correct) (bvxor (select c_41_Global_M_correct i_5_Vdec_correct) (select c_41_Global_M_correct (+ 780 i_7_Ox_correct))))))
(assert (= c_43_Global_M_correct (store c_42_Global_M_correct (+ 858 i_9_s_correct) (bvxor (select c_42_Global_M_correct i_5_Vdec_correct) (select c_42_Global_M_correct (+ 780 i_7_Ox_correct))))))
(assert (= c_44_Global_M_correct (store c_43_Global_M_correct (+ 858 i_9_s_correct) (bvxor (select c_43_Global_M_correct i_5_Vdec_correct) (select c_43_Global_M_correct (+ 780 i_7_Ox_correct))))))
(assert (= c_45_Global_M_correct (store c_44_Global_M_correct (+ 858 i_9_s_correct) (bvxor (select c_44_Global_M_correct i_5_Vdec_correct) (select c_44_Global_M_correct (+ 780 i_7_Ox_correct))))))
(assert (= c_46_Global_M_correct (store c_45_Global_M_correct (+ 858 i_9_s_correct) (bvxor (select c_45_Global_M_correct i_5_Vdec_correct) (select c_45_Global_M_correct (+ 780 i_7_Ox_correct))))))
(assert (= c_47_Global_M_correct (store c_46_Global_M_correct (+ 858 i_9_s_correct) (bvxor (select c_46_Global_M_correct i_5_Vdec_correct) (select c_46_Global_M_correct (+ 780 i_7_Ox_correct))))))
(assert (= c_48_Global_M_correct (store c_47_Global_M_correct (+ 858 i_9_s_correct) (bvxor (select c_47_Global_M_correct i_5_Vdec_correct) (select c_47_Global_M_correct (+ 780 i_7_Ox_correct))))))
(assert (= c_49_Global_M_correct (store c_48_Global_M_correct (+ 858 i_9_s_correct) (bvxor (select c_48_Global_M_correct i_5_Vdec_correct) (select c_48_Global_M_correct (+ 780 i_7_Ox_correct))))))
(assert (= c_50_Global_M_correct (store c_49_Global_M_correct (+ 858 i_9_s_correct) (bvxor (select c_49_Global_M_correct i_5_Vdec_correct) (select c_49_Global_M_correct (+ 780 i_7_Ox_correct))))))
(assert (= c_51_Global_M_correct (store c_50_Global_M_correct (+ 858 i_9_s_correct) (bvxor (select c_50_Global_M_correct i_5_Vdec_correct) (select c_50_Global_M_correct (+ 780 i_7_Ox_correct))))))
(assert (= c_52_Global_M_correct (store c_51_Global_M_correct (+ 858 i_9_s_correct) (bvxor (select c_51_Global_M_correct i_5_Vdec_correct) (select c_51_Global_M_correct (+ 780 i_7_Ox_correct))))))
(assert (= c_53_Global_M_correct (store c_52_Global_M_correct (+ 858 i_9_s_correct) (bvxor (select c_52_Global_M_correct i_5_Vdec_correct) (select c_52_Global_M_correct (+ 780 i_7_Ox_correct))))))
(assert (= c_54_Global_M_correct (store c_53_Global_M_correct (+ 858 i_9_s_correct) (bvxor (select c_53_Global_M_correct i_5_Vdec_correct) (select c_53_Global_M_correct (+ 780 i_7_Ox_correct))))))
(assert (= c_55_Global_M_correct (store c_54_Global_M_correct (+ 858 i_9_s_correct) (bvxor (select c_54_Global_M_correct i_5_Vdec_correct) (select c_54_Global_M_correct (+ 780 i_7_Ox_correct))))))
(assert (= c_56_Global_M_correct (store c_55_Global_M_correct (+ 858 i_9_s_correct) (bvxor (select c_55_Global_M_correct i_5_Vdec_correct) (select c_55_Global_M_correct (+ 780 i_7_Ox_correct))))))
(assert (= c_57_Global_M_correct (store c_56_Global_M_correct (+ 858 i_9_s_correct) (bvxor (select c_56_Global_M_correct i_5_Vdec_correct) (select c_56_Global_M_correct (+ 780 i_7_Ox_correct))))))
(assert (= c_58_Global_M_correct (store c_57_Global_M_correct (+ 858 i_9_s_correct) (bvxor (select c_57_Global_M_correct i_5_Vdec_correct) (select c_57_Global_M_correct (+ 780 i_7_Ox_correct))))))
(assert (= c_59_Global_M_correct (store c_58_Global_M_correct (+ 858 i_9_s_correct) (bvxor (select c_58_Global_M_correct i_5_Vdec_correct) (select c_58_Global_M_correct (+ 780 i_7_Ox_correct))))))
(assert (= c_60_Global_M_correct (store c_59_Global_M_correct (+ 858 i_9_s_correct) (bvxor (select c_59_Global_M_correct i_5_Vdec_correct) (select c_59_Global_M_correct (+ 780 i_7_Ox_correct))))))
(assert (= c_61_Global_M_correct (store c_60_Global_M_correct (+ 858 i_9_s_correct) (bvxor (select c_60_Global_M_correct i_5_Vdec_correct) (select c_60_Global_M_correct (+ 780 i_7_Ox_correct))))))
(assert (= c_62_Global_M_correct (store c_61_Global_M_correct (+ 858 i_9_s_correct) (bvxor (select c_61_Global_M_correct i_5_Vdec_correct) (select c_61_Global_M_correct (+ 780 i_7_Ox_correct))))))
(assert (= c_63_Global_M_correct (store c_62_Global_M_correct (+ 858 i_9_s_correct) (bvxor (select c_62_Global_M_correct i_5_Vdec_correct) (select c_62_Global_M_correct (+ 780 i_7_Ox_correct))))))
(assert (= c_64_Global_M_correct (store c_63_Global_M_correct (+ 858 i_9_s_correct) (bvxor (select c_63_Global_M_correct i_5_Vdec_correct) (select c_63_Global_M_correct (+ 780 i_7_Ox_correct))))))
(assert (= c_65_Global_M_correct (store c_64_Global_M_correct (+ 858 i_9_s_correct) (bvxor (select c_64_Global_M_correct i_5_Vdec_correct) (select c_64_Global_M_correct (+ 780 i_7_Ox_correct))))))
(assert (= c_66_Global_M_correct (store c_65_Global_M_correct (+ 858 i_9_s_correct) (bvxor (select c_65_Global_M_correct i_5_Vdec_correct) (select c_65_Global_M_correct (+ 780 i_7_Ox_correct))))))
(assert (= c_67_Global_M_correct (store c_66_Global_M_correct (+ 858 i_9_s_correct) (bvxor (select c_66_Global_M_correct i_5_Vdec_correct) (select c_66_Global_M_correct (+ 780 i_7_Ox_correct))))))
(assert (= c_68_Global_M_correct (store c_67_Global_M_correct (+ 858 i_9_s_correct) (bvxor (select c_67_Global_M_correct i_5_Vdec_correct) (select c_67_Global_M_correct (+ 780 i_7_Ox_correct))))))
(assert (= c_69_Global_M_correct (store c_68_Global_M_correct (+ 858 i_9_s_correct) (bvxor (select c_68_Global_M_correct i_5_Vdec_correct) (select c_68_Global_M_correct (+ 780 i_7_Ox_correct))))))
(assert (= c_70_Global_M_correct (store c_69_Global_M_correct (+ 858 i_9_s_correct) (bvxor (select c_69_Global_M_correct i_5_Vdec_correct) (select c_69_Global_M_correct (+ 780 i_7_Ox_correct))))))
(assert (= c_71_Global_M_correct (store c_70_Global_M_correct (+ 858 i_9_s_correct) (bvxor (select c_70_Global_M_correct i_5_Vdec_correct) (select c_70_Global_M_correct (+ 780 i_7_Ox_correct))))))
(assert (= c_72_Global_M_correct (store c_71_Global_M_correct (+ 858 i_9_s_correct) (bvxor (select c_71_Global_M_correct i_5_Vdec_correct) (select c_71_Global_M_correct (+ 780 i_7_Ox_correct))))))
(assert (= c_73_Global_M_correct (store c_72_Global_M_correct (+ 858 i_9_s_correct) (bvxor (select c_72_Global_M_correct i_5_Vdec_correct) (select c_72_Global_M_correct (+ 780 i_7_Ox_correct))))))
(assert (= c_74_Global_M_correct (store c_73_Global_M_correct (+ 858 i_9_s_correct) (bvxor (select c_73_Global_M_correct i_5_Vdec_correct) (select c_73_Global_M_correct (+ 780 i_7_Ox_correct))))))
(assert (= c_75_Global_M_correct (store c_74_Global_M_correct (+ 858 i_9_s_correct) (bvxor (select c_74_Global_M_correct i_5_Vdec_correct) (select c_74_Global_M_correct (+ 780 i_7_Ox_correct))))))
(assert (= c_76_Global_M_correct (store c_75_Global_M_correct (+ 858 i_9_s_correct) (bvxor (select c_75_Global_M_correct i_5_Vdec_correct) (select c_75_Global_M_correct (+ 780 i_7_Ox_correct))))))
(assert (= c_77_Global_M_correct (store c_76_Global_M_correct (+ 858 i_9_s_correct) (bvxor (select c_76_Global_M_correct i_5_Vdec_correct) (select c_76_Global_M_correct (+ 780 i_7_Ox_correct))))))
(assert (= c_78_Global_M_correct (store c_77_Global_M_correct (+ 858 i_9_s_correct) (bvxor (select c_77_Global_M_correct i_5_Vdec_correct) (select c_77_Global_M_correct (+ 780 i_7_Ox_correct))))))
(assert (= c_79_Global_M_correct (store c_78_Global_M_correct (+ 858 i_9_s_correct) (bvxor (select c_78_Global_M_correct i_5_Vdec_correct) (select c_78_Global_M_correct (+ 780 i_7_Ox_correct))))))
(assert (= c_80_Global_M_correct (store c_79_Global_M_correct (+ 858 i_9_s_correct) (bvxor (select c_79_Global_M_correct i_5_Vdec_correct) (select c_79_Global_M_correct (+ 780 i_7_Ox_correct))))))
(assert (= c_81_Global_M_correct (store c_80_Global_M_correct (+ 858 i_9_s_correct) (bvxor (select c_80_Global_M_correct i_5_Vdec_correct) (select c_80_Global_M_correct (+ 780 i_7_Ox_correct))))))
(assert (= c_82_Global_M_correct (store c_81_Global_M_correct (+ 858 i_9_s_correct) (bvxor (select c_81_Global_M_correct i_5_Vdec_correct) (select c_81_Global_M_correct (+ 780 i_7_Ox_correct))))))
(assert (= c_83_Global_M_correct (store c_82_Global_M_correct (+ 858 i_9_s_correct) (bvxor (select c_82_Global_M_correct i_5_Vdec_correct) (select c_82_Global_M_correct (+ 780 i_7_Ox_correct))))))
(assert (= c_84_Global_M_correct (store c_83_Global_M_correct (+ 858 i_9_s_correct) (bvxor (select c_83_Global_M_correct i_5_Vdec_correct) (select c_83_Global_M_correct (+ 780 i_7_Ox_correct))))))
(assert (= c_85_Global_M_correct (store c_84_Global_M_correct (+ 858 i_9_s_correct) (bvxor (select c_84_Global_M_correct i_5_Vdec_correct) (select c_84_Global_M_correct (+ 780 i_7_Ox_correct))))))
(assert (= c_86_Global_M_correct (store c_85_Global_M_correct (+ 858 i_9_s_correct) (bvxor (select c_85_Global_M_correct i_5_Vdec_correct) (select c_85_Global_M_correct (+ 780 i_7_Ox_correct))))))
(assert (= c_87_Global_M_correct (store c_86_Global_M_correct (+ 858 i_9_s_correct) (bvxor (select c_86_Global_M_correct i_5_Vdec_correct) (select c_86_Global_M_correct (+ 780 i_7_Ox_correct))))))
(assert (= c_88_Global_M_correct (store c_87_Global_M_correct (+ 858 i_9_s_correct) (bvxor (select c_87_Global_M_correct i_5_Vdec_correct) (select c_87_Global_M_correct (+ 780 i_7_Ox_correct))))))
(assert (= c_89_Global_M_correct (store c_88_Global_M_correct (+ 858 i_9_s_correct) (bvxor (select c_88_Global_M_correct i_5_Vdec_correct) (select c_88_Global_M_correct (+ 780 i_7_Ox_correct))))))
(assert (= c_90_Global_M_correct (store c_89_Global_M_correct (+ 858 i_9_s_correct) (bvxor (select c_89_Global_M_correct i_5_Vdec_correct) (select c_89_Global_M_correct (+ 780 i_7_Ox_correct))))))
(assert (= c_91_Global_M_correct (store c_90_Global_M_correct (+ 858 i_9_s_correct) (bvxor (select c_90_Global_M_correct i_5_Vdec_correct) (select c_90_Global_M_correct (+ 780 i_7_Ox_correct))))))
(assert (= i_10_ret_val_correct 0))
